graph_generation/data/cp/rcsp/hexagonal_lattice_N_6_weights-one_windows-loose.dzn
N = 96;
M = 210;
Edge_Start = [1, 1, 2, 2, 3, 3, 4, 4, 5, 5, 5, 6, 7, 8, 9, 9, 9, 10, 10, 11, 11, 11, 12, 12, 13, 13, 14, 14, 15, 15, 16, 16, 17, 17, 17, 18, 18, 19, 19, 20, 20, 20, 21, 21, 22, 22, 23, 23, 23, 24, 24, 24, 25, 25, 26, 26, 26, 27, 27, 28, 28, 29, 29, 30, 30, 30, 31, 31, 32, 32, 33, 33, 33, 34, 34, 35, 35, 35, 36, 36, 37, 37, 38, 38, 39, 40, 40, 40, 41, 41, 42, 42, 43, 43, 43, 44, 44, 44, 45, 45, 45, 46, 46, 46, 47, 47, 48, 48, 49, 49, 49, 50, 50, 50, 51, 51, 51, 52, 52, 53, 54, 54, 55, 55, 56, 57, 57, 57, 58, 58, 58, 59, 59, 59, 60, 60, 61, 62, 62, 62, 63, 63, 63, 64, 64, 64, 65, 65, 66, 67, 67, 68, 68, 69, 70, 71, 71, 71, 72, 72, 72, 73, 73, 73, 74, 74, 74, 75, 75, 76, 77, 78, 78, 79, 79, 80, 80, 81, 81, 81, 82, 82, 82, 83, 84, 84, 85, 85, 86, 86, 86, 87, 88, 88, 89, 89, 90, 90, 91, 92, 92, 92, 93, 93, 94, 94, 94, 95, 95, 96];
Edge_End = [2, 14, 1, 3, 2, 4, 3, 5, 4, 6, 18, 5, 20, 9, 8, 10, 22, 9, 11, 10, 12, 24, 11, 13, 12, 26, 1, 15, 14, 16, 15, 17, 16, 18, 31, 5, 17, 20, 33, 7, 19, 21, 20, 35, 9, 23, 22, 24, 37, 11, 23, 25, 24, 26, 13, 25, 27, 26, 41, 29, 42, 28, 30, 29, 31, 44, 17, 30, 33, 46, 19, 32, 34, 33, 35, 21, 34, 36, 35, 50, 23, 38, 37, 52, 40, 39, 41, 54, 27, 40, 28, 43, 42, 44, 57, 30, 43, 45, 44, 46, 59, 32, 45, 47, 46, 48, 47, 49, 48, 50, 63, 36, 49, 51, 50, 52, 65, 38, 51, 67, 40, 55, 54, 69, 57, 43, 56, 58, 57, 59, 72, 45, 58, 60, 59, 74, 62, 61, 63, 76, 49, 62, 64, 63, 65, 78, 51, 64, 80, 53, 68, 67, 82, 55, 71, 70, 72, 84, 58, 71, 73, 72, 74, 86, 60, 73, 75, 74, 88, 62, 90, 64, 79, 78, 92, 66, 81, 80, 82, 94, 68, 81, 83, 82, 71, 85, 84, 86, 73, 85, 87, 86, 75, 89, 88, 90, 77, 89, 92, 79, 91, 93, 92, 94, 81, 93, 95, 94, 96, 95];
L = [1, 1, 1, 1, 1, 1, 1, 1, 1, 1, 1, 1, 1, 1, 1, 1, 1, 1, 1, 1, 1, 1, 1, 1, 1, 1, 1, 1, 1, 1, 1, 1, 1, 1, 1, 1, 1, 1, 1, 1, 1, 1, 1, 1, 1, 1, 1, 1, 1, 1, 1, 1, 1, 1, 1, 1, 1, 1, 1, 1, 1, 1, 1, 1, 1, 1, 1, 1, 1, 1, 1, 1, 1, 1, 1, 1, 1, 1, 1, 1, 1, 1, 1, 1, 1, 1, 1, 1, 1, 1, 1, 1, 1, 1, 1, 1, 1, 1, 1, 1, 1, 1, 1, 1, 1, 1, 1, 1, 1, 1, 1, 1, 1, 1, 1, 1, 1, 1, 1, 1, 1, 1, 1, 1, 1, 1, 1, 1, 1, 1, 1, 1, 1, 1, 1, 1, 1, 1, 1, 1, 1, 1, 1, 1, 1, 1, 1, 1, 1, 1, 1, 1, 1, 1, 1, 1, 1, 1, 1, 1, 1, 1, 1, 1, 1, 1, 1, 1, 1, 1, 1, 1, 1, 1, 1, 1, 1, 1, 1, 1, 1, 1, 1, 1, 1, 1, 1, 1, 1, 1, 1, 1, 1, 1, 1, 1, 1, 1, 1, 1, 1, 1, 1, 1, 1, 1, 1, 1, 1, 1];
T = [1, 1, 1, 1, 1, 1, 1, 1, 1, 1, 1, 1, 1, 1, 1, 1, 1, 1, 1, 1, 1, 1, 1, 1, 1, 1, 1, 1, 1, 1, 1, 1, 1, 1, 1, 1, 1, 1, 1, 1, 1, 1, 1, 1, 1, 1, 1, 1, 1, 1, 1, 1, 1, 1, 1, 1, 1, 1, 1, 1, 1, 1, 1, 1, 1, 1, 1, 1, 1, 1, 1, 1, 1, 1, 1, 1, 1, 1, 1, 1, 1, 1, 1, 1, 1, 1, 1, 1, 1, 1, 1, 1, 1, 1, 1, 1, 1, 1, 1, 1, 1, 1, 1, 1, 1, 1, 1, 1, 1, 1, 1, 1, 1, 1, 1, 1, 1, 1, 1, 1, 1, 1, 1, 1, 1, 1, 1, 1, 1, 1, 1, 1, 1, 1, 1, 1, 1, 1, 1, 1, 1, 1, 1, 1, 1, 1, 1, 1, 1, 1, 1, 1, 1, 1, 1, 1, 1, 1, 1, 1, 1, 1, 1, 1, 1, 1, 1, 1, 1, 1, 1, 1, 1, 1, 1, 1, 1, 1, 1, 1, 1, 1, 1, 1, 1, 1, 1, 1, 1, 1, 1, 1, 1, 1, 1, 1, 1, 1, 1, 1, 1, 1, 1, 1, 1, 1, 1, 1, 1, 1];
Lower_Bound = [3, 1, 3, 3, 4, 6, 16, 22, 20, 24, 20, 22, 22, 1, 2, 3, 5, 5, 13, 13, 15, 20, 18, 20, 21, 21, 22, 9, 7, 6, 5, 10, 14, 12, 14, 14, 17, 16, 26, 25, 23, 10, 9, 8, 8, 10, 11, 11, 12, 14, 14, 15, 24, 25, 27, 12, 9, 11, 9, 10, 15, 14, 14, 15, 15, 22, 23, 22, 29, 13, 13, 12, 12, 11, 12, 15, 16, 16, 16, 21, 20, 22, 22, 13, 14, 13, 14, 13, 14, 15, 19, 17, 19, 19, 20, 21];
Upper_Bound = [5, 4, 5, 10, 6, 14, 24, 30, 22, 25, 24, 23, 28, 6, 8, 5, 10, 6, 23, 17, 18, 27, 20, 23, 27, 26, 27, 13, 10, 8, 6, 11, 18, 15, 16, 24, 18, 18, 30, 30, 35, 16, 12, 18, 16, 11, 13, 27, 13, 17, 27, 19, 29, 33, 29, 22, 13, 16, 22, 14, 16, 16, 22, 16, 19, 33, 30, 23, 35, 18, 18, 13, 14, 12, 22, 18, 30, 24, 26, 24, 31, 25, 23, 18, 15, 19, 21, 15, 19, 23, 22, 21, 22, 29, 24, 23];
Start = 1;
End = 96;
Time = 23;
