graph_generation/data/sat/rcsp/hexagonal_lattice_N_6_weights-one_windows-loose.txt
N = 96;
M = 105;
Edge_Start = [1, 1, 2, 3, 4, 5, 5, 7, 8, 9, 9, 10, 11, 11, 12, 13, 14, 15, 16, 17, 17, 19, 19, 20, 21, 22, 23, 23, 24, 25, 26, 27, 28, 28, 29, 30, 30, 32, 32, 33, 34, 35, 36, 37, 38, 39, 40, 40, 42, 43, 43, 44, 45, 45, 46, 47, 48, 49, 49, 50, 51, 51, 53, 54, 55, 56, 57, 58, 58, 59, 60, 61, 62, 62, 63, 64, 64, 66, 67, 68, 70, 71, 71, 72, 73, 73, 74, 75, 77, 78, 79, 80, 81, 81, 82, 84, 85, 86, 88, 89, 91, 92, 93, 94, 95];
Edge_End = [2, 14, 3, 4, 5, 6, 18, 20, 9, 10, 22, 11, 12, 24, 13, 26, 15, 16, 17, 18, 31, 20, 33, 21, 35, 23, 24, 37, 25, 26, 27, 41, 29, 42, 30, 31, 44, 33, 46, 34, 35, 36, 50, 38, 52, 40, 41, 54, 43, 44, 57, 45, 46, 59, 47, 48, 49, 50, 63, 51, 52, 65, 67, 55, 69, 57, 58, 59, 72, 60, 74, 62, 63, 76, 64, 65, 78, 80, 68, 82, 71, 72, 84, 73, 74, 86, 75, 88, 90, 79, 92, 81, 82, 94, 83, 85, 86, 87, 89, 90, 92, 93, 94, 95, 96];
L = [1, 1, 1, 1, 1, 1, 1, 1, 1, 1, 1, 1, 1, 1, 1, 1, 1, 1, 1, 1, 1, 1, 1, 1, 1, 1, 1, 1, 1, 1, 1, 1, 1, 1, 1, 1, 1, 1, 1, 1, 1, 1, 1, 1, 1, 1, 1, 1, 1, 1, 1, 1, 1, 1, 1, 1, 1, 1, 1, 1, 1, 1, 1, 1, 1, 1, 1, 1, 1, 1, 1, 1, 1, 1, 1, 1, 1, 1, 1, 1, 1, 1, 1, 1, 1, 1, 1, 1, 1, 1, 1, 1, 1, 1, 1, 1, 1, 1, 1, 1, 1, 1, 1, 1, 1];
T = [1, 1, 1, 1, 1, 1, 1, 1, 1, 1, 1, 1, 1, 1, 1, 1, 1, 1, 1, 1, 1, 1, 1, 1, 1, 1, 1, 1, 1, 1, 1, 1, 1, 1, 1, 1, 1, 1, 1, 1, 1, 1, 1, 1, 1, 1, 1, 1, 1, 1, 1, 1, 1, 1, 1, 1, 1, 1, 1, 1, 1, 1, 1, 1, 1, 1, 1, 1, 1, 1, 1, 1, 1, 1, 1, 1, 1, 1, 1, 1, 1, 1, 1, 1, 1, 1, 1, 1, 1, 1, 1, 1, 1, 1, 1, 1, 1, 1, 1, 1, 1, 1, 1, 1, 1];
Lower_Bound = [0, 2, 4, 3, 5, 5, 14, 21, 20, 21, 20, 22, 24, 1, 2, 4, 4, 5, 12, 13, 14, 19, 18, 20, 20, 21, 22, 10, 7, 6, 5, 11, 11, 12, 13, 14, 17, 16, 25, 24, 23, 10, 8, 11, 8, 9, 10, 12, 14, 13, 14, 15, 25, 25, 26, 11, 12, 10, 9, 10, 15, 14, 13, 14, 17, 22, 24, 22, 27, 13, 13, 11, 12, 12, 12, 16, 17, 16, 16, 21, 20, 21, 22, 13, 16, 13, 15, 13, 14, 15, 18, 17, 18, 20, 20, 21];
Upper_Bound = [6, 4, 16, 16, 7, 11, 15, 29, 21, 23, 22, 24, 25, 5, 4, 7, 7, 15, 13, 14, 15, 33, 19, 26, 24, 27, 27, 32, 11, 13, 19, 12, 17, 14, 14, 18, 21, 19, 36, 31, 27, 11, 24, 17, 11, 11, 22, 15, 25, 24, 30, 23, 28, 26, 36, 21, 16, 18, 14, 13, 21, 18, 14, 17, 19, 26, 28, 23, 31, 19, 29, 12, 16, 14, 14, 18, 20, 18, 18, 29, 23, 28, 24, 17, 17, 14, 16, 16, 18, 22, 23, 18, 20, 22, 31, 24];
Start = 1;
End = 96;
Time = 24;
